feasible solution found by trivial heuristic after 0.0 seconds, objective value 0.000000e+00
presolving:
(round 1, fast)       0 del vars, 93 del conss, 0 add conss, 0 chg bounds, 0 chg sides, 0 chg coeffs, 0 upgd conss, 0 impls, 533 clqs
   (0.1s) running MILP presolver
   (0.1s) MILP presolver found nothing
(round 2, exhaustive) 0 del vars, 109 del conss, 0 add conss, 0 chg bounds, 16 chg sides, 0 chg coeffs, 0 upgd conss, 0 impls, 533 clqs
(round 3, exhaustive) 0 del vars, 109 del conss, 0 add conss, 0 chg bounds, 16 chg sides, 0 chg coeffs, 18639 upgd conss, 0 impls, 533 clqs
(round 4, exhaustive) 0 del vars, 109 del conss, 0 add conss, 0 chg bounds, 16 chg sides, 1561 chg coeffs, 18639 upgd conss, 0 impls, 533 clqs
(round 5, fast)       0 del vars, 1192 del conss, 0 add conss, 0 chg bounds, 16 chg sides, 1561 chg coeffs, 18639 upgd conss, 0 impls, 1011 clqs
(round 6, exhaustive) 0 del vars, 14265 del conss, 0 add conss, 0 chg bounds, 16 chg sides, 1561 chg coeffs, 18639 upgd conss, 0 impls, 1011 clqs
   (0.3s) running MILP presolver
   (0.3s) MILP presolver found nothing
   (0.4s) probing: 51/1200 (4.2%) - 0 fixings, 0 aggregations, 0 implications, 0 bound changes
   (0.4s) probing aborted: 50/50 successive totally useless probings
   (0.4s) symmetry computation started: requiring (bin +, int -, cont +), (fixed: bin -, int +, cont -)
   (0.4s) no symmetry present
presolving (7 rounds: 7 fast, 5 medium, 5 exhaustive):
 0 deleted vars, 14265 deleted constraints, 0 added constraints, 0 tightened bounds, 0 added holes, 16 changed sides, 1561 changed coefficients
 0 implications, 1011 cliques
presolved problem has 1200 variables (1200 bin, 0 int, 0 impl, 0 cont) and 4483 constraints
    517 constraints of type <setppc>
   3966 constraints of type <logicor>
Presolving Time: 0.35
transformed 1/1 original solutions to the transformed problem space

 time | node  | left  |LP iter|LP it/n|mem/heur|mdpt |vars |cons |rows |cuts |sepa|confs|strbr|  dualbound   | primalbound  |  gap   | compl. 
p 0.4s|     1 |     0 |     5 |     - |  clique|   0 |1200 |4483 |4483 |   0 |  0 |   0 |   0 | 5.446969e+06 | 5.074808e+05 | 973.33%| unknown
  0.9s|     1 |     0 |  3131 |     - |    47M |   0 |1200 |4483 |4483 |   0 |  0 |   0 |   0 | 7.041062e+05 | 5.074808e+05 |  38.75%| unknown
  1.1s|     1 |     0 |  3321 |     - |    50M |   0 |1200 |4483 |4486 |   3 |  1 |   0 |   0 | 7.011156e+05 | 5.074808e+05 |  38.16%| unknown
  1.4s|     1 |     0 |  3499 |     - |    55M |   0 |1200 |4483 |4492 |   9 |  2 |   0 |   0 | 6.987655e+05 | 5.074808e+05 |  37.69%| unknown
  1.6s|     1 |     0 |  3615 |     - |    57M |   0 |1200 |4483 |4496 |  13 |  3 |   0 |   0 | 6.971494e+05 | 5.074808e+05 |  37.37%| unknown
  1.9s|     1 |     0 |  3775 |     - |    61M |   0 |1200 |4483 |4500 |  17 |  4 |   0 |   0 | 6.961950e+05 | 5.074808e+05 |  37.19%| unknown
  2.3s|     1 |     0 |  3882 |     - |    64M |   0 |1200 |4483 |4504 |  21 |  5 |   0 |   0 | 6.957009e+05 | 5.074808e+05 |  37.09%| unknown
  2.6s|     1 |     0 |  3967 |     - |    68M |   0 |1200 |4483 |4508 |  25 |  6 |   0 |   0 | 6.953279e+05 | 5.074808e+05 |  37.02%| unknown
  2.9s|     1 |     0 |  4139 |     - |    70M |   0 |1200 |4483 |4511 |  28 |  7 |   0 |   0 | 6.944639e+05 | 5.074808e+05 |  36.85%| unknown
  3.3s|     1 |     0 |  4271 |     - |    75M |   0 |1200 |4483 |4513 |  30 |  8 |   0 |   0 | 6.940238e+05 | 5.074808e+05 |  36.76%| unknown
  3.6s|     1 |     0 |  4374 |     - |    78M |   0 |1200 |4483 |4517 |  34 |  9 |   0 |   0 | 6.937838e+05 | 5.074808e+05 |  36.71%| unknown
  4.0s|     1 |     0 |  4460 |     - |    81M |   0 |1200 |4483 |4519 |  36 | 10 |   0 |   0 | 6.936241e+05 | 5.074808e+05 |  36.68%| unknown
  4.1s|     1 |     0 |  4550 |     - |    82M |   0 |1200 |4483 |4525 |  42 | 11 |   0 |   0 | 6.934208e+05 | 5.074808e+05 |  36.64%| unknown
  4.1s|     1 |     0 |  4636 |     - |    82M |   0 |1200 |4483 |4530 |  47 | 12 |   0 |   0 | 6.930066e+05 | 5.074808e+05 |  36.56%| unknown
  4.2s|     1 |     0 |  4715 |     - |    83M |   0 |1200 |4483 |4532 |  49 | 13 |   0 |   0 | 6.927988e+05 | 5.074808e+05 |  36.52%| unknown
 time | node  | left  |LP iter|LP it/n|mem/heur|mdpt |vars |cons |rows |cuts |sepa|confs|strbr|  dualbound   | primalbound  |  gap   | compl. 
  4.3s|     1 |     0 |  4797 |     - |    83M |   0 |1200 |4483 |4536 |  53 | 14 |   0 |   0 | 6.925773e+05 | 5.074808e+05 |  36.47%| unknown
  4.4s|     1 |     0 |  4860 |     - |    84M |   0 |1200 |4483 |4539 |  56 | 15 |   0 |   0 | 6.922066e+05 | 5.074808e+05 |  36.40%| unknown
  4.5s|     1 |     0 |  4898 |     - |    84M |   0 |1200 |4483 |4543 |  60 | 16 |   0 |   0 | 6.921043e+05 | 5.074808e+05 |  36.38%| unknown
  4.5s|     1 |     0 |  4960 |     - |    85M |   0 |1200 |4483 |4546 |  63 | 17 |   0 |   0 | 6.919008e+05 | 5.074808e+05 |  36.34%| unknown
  4.6s|     1 |     0 |  4982 |     - |    85M |   0 |1200 |4483 |4547 |  64 | 18 |   0 |   0 | 6.918617e+05 | 5.074808e+05 |  36.33%| unknown
  4.7s|     1 |     0 |  5022 |     - |    86M |   0 |1200 |4483 |4549 |  66 | 19 |   0 |   0 | 6.917796e+05 | 5.074808e+05 |  36.32%| unknown
  4.8s|     1 |     0 |  5078 |     - |    87M |   0 |1200 |4483 |4553 |  70 | 20 |   0 |   0 | 6.916387e+05 | 5.074808e+05 |  36.29%| unknown
  4.8s|     1 |     0 |  5094 |     - |    87M |   0 |1200 |4483 |4554 |  71 | 21 |   0 |   0 | 6.916281e+05 | 5.074808e+05 |  36.29%| unknown
  4.9s|     1 |     0 |  5117 |     - |    87M |   0 |1200 |4483 |4547 |  72 | 22 |   0 |   0 | 6.915843e+05 | 5.074808e+05 |  36.28%| unknown
  4.9s|     1 |     0 |  5132 |     - |    87M |   0 |1200 |4483 |4549 |  74 | 23 |   0 |   0 | 6.915683e+05 | 5.074808e+05 |  36.27%| unknown
  5.0s|     1 |     0 |  5160 |     - |    87M |   0 |1200 |4483 |4553 |  78 | 25 |   0 |   0 | 6.915392e+05 | 5.074808e+05 |  36.27%| unknown
  5.0s|     1 |     0 |  5179 |     - |    87M |   0 |1200 |4483 |4557 |  82 | 26 |   0 |   0 | 6.915276e+05 | 5.074808e+05 |  36.27%| unknown
  5.1s|     1 |     0 |  5199 |     - |    87M |   0 |1200 |4483 |4559 |  84 | 27 |   0 |   0 | 6.915215e+05 | 5.074808e+05 |  36.27%| unknown
  5.1s|     1 |     0 |  5215 |     - |    87M |   0 |1200 |4483 |4561 |  86 | 29 |   0 |   0 | 6.915174e+05 | 5.074808e+05 |  36.26%| unknown
  5.2s|     1 |     0 |  5224 |     - |    87M |   0 |1200 |4483 |4557 |  87 | 30 |   0 |   0 | 6.915142e+05 | 5.074808e+05 |  36.26%| unknown
 time | node  | left  |LP iter|LP it/n|mem/heur|mdpt |vars |cons |rows |cuts |sepa|confs|strbr|  dualbound   | primalbound  |  gap   | compl. 
d 5.5s|     1 |     0 |  6891 |     - |farkasdi|   0 |1200 |4483 |4557 |   0 | 30 |   0 |   0 | 6.915142e+05 | 5.808208e+05 |  19.06%| unknown
L 8.7s|     1 |     0 |  6891 |     - |    rens|   0 |1200 |4483 |4557 |  87 | 30 |   0 |   0 | 6.915142e+05 | 6.093487e+05 |  13.48%| unknown
  8.8s|     1 |     0 |  6891 |     - |    88M |   0 |1200 |4483 |4557 |  87 | 30 |   0 |   0 | 6.915142e+05 | 6.093487e+05 |  13.48%| unknown
 10.0s|     1 |     2 |  6891 |     - |    88M |   0 |1200 |4483 |4557 |  87 | 32 |   0 |  19 | 6.881658e+05 | 6.093487e+05 |  12.93%| unknown
*16.1s|     8 |     7 |  8944 | 532.1 |strongbr|   6 |1200 |4483 |4540 |  87 |  1 |   0 | 161 | 6.852061e+05 | 6.379124e+05 |   7.41%| unknown
*16.5s|     9 |     6 |  9060 | 480.1 |strongbr|   6 |1200 |4490 |4540 |  87 |  1 |   7 | 184 | 6.852061e+05 | 6.416340e+05 |   6.79%|   2.98%
 34.5s|   100 |     5 | 25776 | 207.6 |   110M |  17 |1200 |4572 |4543 | 143 |  1 |  89 | 703 | 6.852061e+05 | 6.416340e+05 |   6.79%|  46.77%
 42.4s|   200 |    11 | 35777 | 153.6 |   118M |  17 |1200 |4578 |4549 | 205 |  1 |  95 | 740 | 6.812462e+05 | 6.416340e+05 |   6.17%|  52.01%
 48.1s|   300 |    17 | 46979 | 139.7 |   123M |  17 |1200 |4585 |4555 | 264 |  2 | 102 | 788 | 6.764193e+05 | 6.416340e+05 |   5.42%|  54.44%
 54.0s|   400 |    17 | 59089 | 135.0 |   131M |  17 |1200 |4597 |4557 | 349 |  1 | 114 | 819 | 6.726006e+05 | 6.416340e+05 |   4.83%|  56.37%
 59.9s|   500 |    17 | 68441 | 126.7 |   134M |  19 |1200 |4606 |4552 | 420 |  2 | 123 | 870 | 6.726006e+05 | 6.416340e+05 |   4.83%|  56.65%
 63.6s|   600 |    25 | 78169 | 121.8 |   139M |  20 |1200 |4607 |4543 | 455 |  0 | 124 | 891 | 6.699191e+05 | 6.416340e+05 |   4.41%|  58.04%
 67.1s|   700 |    27 | 88285 | 118.8 |   139M |  22 |1200 |4617 |4548 | 470 |  0 | 134 | 931 | 6.681005e+05 | 6.416340e+05 |   4.12%|  61.04%
 73.9s|   800 |    29 |100500 | 119.3 |   140M |  22 |1200 |4630 |4541 | 533 |  2 | 147 | 962 | 6.670408e+05 | 6.416340e+05 |   3.96%|  68.35%
 77.9s|   900 |    31 |111570 | 118.3 |   140M |  22 |1200 |4649 |4552 | 567 |  0 | 166 |1011 | 6.670408e+05 | 6.416340e+05 |   3.96%|  69.54%
 time | node  | left  |LP iter|LP it/n|mem/heur|mdpt |vars |cons |rows |cuts |sepa|confs|strbr|  dualbound   | primalbound  |  gap   | compl. 
 84.1s|  1000 |    33 |124239 | 119.1 |   141M |  22 |1200 |4665 |4551 | 624 |  1 | 184 |1070 | 6.624911e+05 | 6.416340e+05 |   3.25%|  75.91%
 92.6s|  1100 |    35 |135298 | 118.4 |   142M |  22 |1200 |4689 |4544 | 698 |  0 | 208 |1121 | 6.612102e+05 | 6.416340e+05 |   3.05%|  84.72%
 97.8s|  1200 |    35 |145100 | 116.7 |   143M |  25 |1200 |4700 |4561 | 738 |  0 | 219 |1162 | 6.610977e+05 | 6.416340e+05 |   3.03%|  87.65%
  102s|  1300 |    25 |155559 | 115.7 |   143M |  25 |1200 |4729 |4548 | 767 |  0 | 248 |1211 | 6.601021e+05 | 6.416340e+05 |   2.88%|  88.47%
  106s|  1400 |    21 |165368 | 114.5 |   143M |  25 |1200 |4750 |4551 | 790 |  2 | 269 |1259 | 6.599786e+05 | 6.416340e+05 |   2.86%|  88.70%
  112s|  1500 |    17 |175539 | 113.6 |   143M |  25 |1200 |4762 |4550 | 827 |  0 | 282 |1305 | 6.559428e+05 | 6.416340e+05 |   2.23%|  90.69%
  115s|  1600 |     3 |183629 | 111.6 |   143M |  25 |1200 |4781 |4551 | 841 |  2 | 301 |1346 | 6.535654e+05 | 6.416340e+05 |   1.86%|  94.76%

SCIP Status        : problem is solved [optimal solution found]
Solving Time (sec) : 115.74
Solving Nodes      : 1621
Primal Bound       : +6.41634032888830e+05 (250 solutions)
Dual Bound         : +6.41634032888830e+05
Gap                : 0.00 %
Solve Status: optimal
Solve Time: 115.74 seconds
